benchmark/results/graph__10-1000-0.10-04_11/graph__10-1000-0.10-04_11_Quinton_Benders_aux.lp
\ This file has been generated by DOcplex
\ ENCODING=ISO-8859-1
\Problem name: Quinton Benders_auxiliary_sub

Minimize
 obj: 0.001107419712 pi_nr_a0 + 0.004582696535 pi_nr_a1
      + 0.001394456310 pi_nr_a2 + 0.001070705214 pi_nr_a3
      + 0.000810384476 pi_nr_a4 + 0.001126012015 pi_nr_a5
      + 0.002312989711 pi_nr_a6 + 0.000801924619 pi_nr_a7
      + 0.001402525155 pi_nr_a8 + 0.001227182251 pi_nr_a9 + 2 pi_p_a0_a1
      + pi_p_a0_a2 + 2 pi_p_a3_a5 + pi_p_a6_a7 + pi_p_a1_a8 + pi_p_a5_a5
      + pi_p_a9_a7 + pi_p_a7_a7 + pi_p_a3_a8
      + 2221.169360202672 pi_d_a0_a1_proc_3
      + 3647.398251693397 pi_d_a0_a1_proc_1 - 0.860092131123 pi_d_a1_a0_proc_3
      + 1425.368799359603 pi_d_a1_a0_proc_1 + 1.875031290274 pi_d_a0_a2_proc_3
      + 318.797752006772 pi_d_a0_a2_proc_1 + 2218.202285709162 pi_d_a2_a0_proc_3
      + 2535.125006425660 pi_d_a2_a0_proc_1
      + 2279.800657265381 pi_d_a0_a3_proc_3
      + 3593.549269615350 pi_d_a0_a3_proc_1 + 165.702117960873 pi_d_a3_a0_proc_3
      + 1479.450730310843 pi_d_a3_a0_proc_1
      + 5065.569092656142 pi_d_a0_a4_proc_1 + 7.430907270051 pi_d_a4_a0_proc_1
      + 1627.830396606560 pi_d_a0_a5_proc_3
      + 2420.320123729337 pi_d_a0_a5_proc_1 + 275.169565616532 pi_d_a5_a0_proc_3
      + 1067.659292739309 pi_d_a5_a0_proc_1 + 225.032056008407 pi_d_a0_a6_proc_3
      + 2458.291336065566 pi_d_a0_a6_proc_1 + 92.948898309434 pi_d_a6_a0_proc_3
      + 2326.208178366593 pi_d_a6_a0_proc_1 + 19.458468884558 pi_d_a0_a7_proc_3
      + 19.458468884558 pi_d_a0_a7_proc_1 + 2517.541531115442 pi_d_a7_a0_proc_3
      + 2517.541531115442 pi_d_a7_a0_proc_1 + 13.556808674566 pi_d_a0_a8_proc_3
      + 1281.566369341472 pi_d_a0_a8_proc_1
      + 2523.423956622744 pi_d_a8_a0_proc_3
      + 3791.433517289651 pi_d_a8_a0_proc_1 + 94.676197704492 pi_d_a0_a9_proc_3
      + 2472.205219884385 pi_d_a0_a9_proc_1 + 223.265757861915 pi_d_a9_a0_proc_3
      + 2600.794780041808 pi_d_a9_a0_proc_1
      + 3645.632996765854 pi_d_a1_a2_proc_2
      + 3328.861406268207 pi_d_a1_a2_proc_3
      + 2536.013018623046 pi_d_a1_a2_proc_1
      + 1427.296769152809 pi_d_a2_a1_proc_2
      + 1110.525178655163 pi_d_a2_a1_proc_3 + 317.676791010002 pi_d_a2_a1_proc_1
      + 2533.545561074861 pi_d_a1_a3_proc_2
      + 3551.738049550913 pi_d_a1_a3_proc_3
      + 2646.328947738279 pi_d_a1_a3_proc_0
      + 3755.715553539223 pi_d_a1_a3_proc_1 + 94.881505123223 pi_d_a3_a1_proc_2
      + 1113.073993599275 pi_d_a3_a1_proc_3 + 207.664891786641 pi_d_a3_a1_proc_0
      + 1317.051497587585 pi_d_a3_a1_proc_1 + 924.306900901428 pi_d_a1_a4_proc_2
      + 1082.763094636786 pi_d_a1_a4_proc_0
      + 2192.187603113648 pi_d_a1_a4_proc_1
      + 1612.698745800939 pi_d_a4_a1_proc_2
      + 1771.154939536297 pi_d_a4_a1_proc_0
      + 2880.579448013159 pi_d_a4_a1_proc_1
      + 1315.211449946486 pi_d_a1_a5_proc_2 + 839.901522533410 pi_d_a1_a5_proc_3
      + 47.254516065165 pi_d_a1_a5_proc_0 + 522.620141294528 pi_d_a1_a5_proc_1
      + 3757.717635026691 pi_d_a5_a1_proc_2
      + 3282.407707613616 pi_d_a5_a1_proc_3
      + 2489.760701145370 pi_d_a5_a1_proc_0
      + 2965.126326374734 pi_d_a5_a1_proc_1
      + 3023.262571559150 pi_d_a1_a6_proc_2
      + 1759.157605754773 pi_d_a1_a6_proc_3
      + 1906.984023771344 pi_d_a1_a6_proc_0
      + 2882.645777450271 pi_d_a1_a6_proc_1
      + 2042.237582291381 pi_d_a6_a1_proc_2 + 778.132616487003 pi_d_a6_a1_proc_3
      + 925.959034503575 pi_d_a6_a1_proc_0 + 1901.620788182502 pi_d_a6_a1_proc_1
      + 2775.392443228277 pi_d_a1_a7_proc_3
      + 1665.621334866617 pi_d_a1_a7_proc_1
      + 1980.916824695658 pi_d_a7_a1_proc_3 + 871.145716333998 pi_d_a7_a1_proc_1
      + 2537.113544541004 pi_d_a1_a8_proc_3 + 317.975121728624 pi_d_a1_a8_proc_0
      + 2695.351996846250 pi_d_a1_a8_proc_1
      + 2219.176488680241 pi_d_a8_a1_proc_3 + 0.038065867862 pi_d_a8_a1_proc_0
      + 2377.414940985488 pi_d_a8_a1_proc_1
      + 1709.120312243109 pi_d_a1_a9_proc_2 + 441.281003313013 pi_d_a1_a9_proc_3
      + 441.181333584003 pi_d_a1_a9_proc_0 + 1709.038917131247 pi_d_a1_a9_proc_1
      + 3363.809529107422 pi_d_a9_a1_proc_2
      + 2095.970220177327 pi_d_a9_a1_proc_3
      + 2095.870550448317 pi_d_a9_a1_proc_0
      + 3363.728133995561 pi_d_a9_a1_proc_1 + 943.293954938981 pi_d_a2_a3_proc_2
      + 1961.335426270176 pi_d_a2_a3_proc_3
      + 1056.006759484259 pi_d_a2_a3_proc_1
      + 1685.203194476704 pi_d_a3_a2_proc_2
      + 2703.244665807899 pi_d_a3_a2_proc_3
      + 1797.915999021981 pi_d_a3_a2_proc_1 + 236.643577857529 pi_d_a2_a4_proc_2
      + 395.067092150664 pi_d_a2_a4_proc_1 + 2300.432152062440 pi_d_a4_a2_proc_2
      + 2458.855666355576 pi_d_a4_a2_proc_1
      + 2711.398149603966 pi_d_a2_a5_proc_2
      + 2235.937205046034 pi_d_a2_a5_proc_3 + 809.349653032924 pi_d_a2_a5_proc_1
      + 2361.601018586811 pi_d_a5_a2_proc_2
      + 1886.140074028879 pi_d_a5_a2_proc_3 + 459.552522015769 pi_d_a5_a2_proc_1
      + 3683.506609284933 pi_d_a2_a6_proc_2
      + 2419.250626335699 pi_d_a2_a6_proc_3
      + 2433.432627256970 pi_d_a2_a6_proc_1
      + 1382.063627783199 pi_d_a6_a2_proc_2 + 117.807644833964 pi_d_a6_a2_proc_3
      + 131.989645755235 pi_d_a6_a2_proc_1 + 2225.285227462979 pi_d_a2_a7_proc_3
      + 6.207948327092 pi_d_a2_a7_proc_1 + 2530.792089388842 pi_d_a7_a2_proc_3
      + 311.714810252955 pi_d_a7_a2_proc_1 + 2722.148339440150 pi_d_a2_a8_proc_3
      + 1771.080620971169 pi_d_a2_a8_proc_1
      + 2033.909742708981 pi_d_a8_a2_proc_3
      + 1082.842024240000 pi_d_a8_a2_proc_1
      + 1321.915384715298 pi_d_a2_a9_proc_2 + 53.925058640345 pi_d_a2_a9_proc_3
      + 212.376801684352 pi_d_a2_a9_proc_1 + 3751.084539852834 pi_d_a9_a2_proc_2
      + 2483.094213777882 pi_d_a9_a2_proc_3
      + 2641.545956821888 pi_d_a9_a2_proc_1 + 0.809320743479 pi_d_a3_a4_proc_2
      + 2490.984902967866 pi_d_a3_a4_proc_0
      + 2491.022805643784 pi_d_a3_a4_proc_1 + 91.763709455911 pi_d_a4_a3_proc_2
      + 2581.939291680298 pi_d_a4_a3_proc_0
      + 2581.977194356216 pi_d_a4_a3_proc_1 + 340.945296305392 pi_d_a3_a5_proc_2
      + 1200.448430721158 pi_d_a3_a5_proc_3
      + 1404.707750913100 pi_d_a3_a5_proc_0 + 770.686770341519 pi_d_a3_a5_proc_1
      + 2287.551172164807 pi_d_a5_a3_proc_2
      + 3147.054306580573 pi_d_a5_a3_proc_3
      + 3351.313626772516 pi_d_a5_a3_proc_0
      + 2717.292646200935 pi_d_a5_a3_proc_1
      + 1863.403204414040 pi_d_a3_a6_proc_2
      + 1934.111300438504 pi_d_a3_a6_proc_3
      + 3078.844045115263 pi_d_a3_a6_proc_0
      + 2945.119192993246 pi_d_a3_a6_proc_1 + 757.664332933513 pi_d_a6_a3_proc_2
      + 828.372428957977 pi_d_a6_a3_proc_3 + 1973.105173634737 pi_d_a6_a3_proc_0
      + 1839.380321512720 pi_d_a6_a3_proc_1
      + 1349.191307170831 pi_d_a3_a7_proc_3 + 126.939919668415 pi_d_a3_a7_proc_1
      + 3632.311467907808 pi_d_a7_a3_proc_3
      + 2410.060080405392 pi_d_a7_a3_proc_1
      + 3735.702386538149 pi_d_a3_a8_proc_3
      + 2513.470290385957 pi_d_a3_a8_proc_0
      + 3781.460559702639 pi_d_a3_a8_proc_1
      + 1245.781153837801 pi_d_a8_a3_proc_3 + 23.549057685610 pi_d_a8_a3_proc_0
      + 1291.539327002291 pi_d_a8_a3_proc_1
      + 1923.024008266927 pi_d_a3_a9_proc_2
      + 1989.997761165674 pi_d_a3_a9_proc_3
      + 2986.804418096851 pi_d_a3_a9_proc_0
      + 3145.275395843151 pi_d_a3_a9_proc_1 + 705.473216580626 pi_d_a9_a3_proc_2
      + 772.446969479372 pi_d_a9_a3_proc_3 + 1769.253626410550 pi_d_a9_a3_proc_0
      + 1927.724604156849 pi_d_a9_a3_proc_1
      + 2365.804460319102 pi_d_a4_a5_proc_2
      + 3475.239721998751 pi_d_a4_a5_proc_0
      + 2841.256644103088 pi_d_a4_a5_proc_1 + 171.270588655380 pi_d_a5_a4_proc_2
      + 1280.705850335029 pi_d_a5_a4_proc_0 + 646.722772439366 pi_d_a5_a4_proc_1
      + 45.553493342361 pi_d_a4_a6_proc_2 + 1306.667141115524 pi_d_a4_a6_proc_0
      + 1172.980191669425 pi_d_a4_a6_proc_1
      + 2484.092624509476 pi_d_a6_a4_proc_2
      + 3745.206272282639 pi_d_a6_a4_proc_0
      + 3611.519322836541 pi_d_a6_a4_proc_1 + 904.776304493531 pi_d_a4_a7_proc_1
      + 1632.223695580277 pi_d_a7_a4_proc_1
      + 2516.630362497646 pi_d_a4_a8_proc_0
      + 3784.658534490246 pi_d_a4_a8_proc_1 + 20.313180222084 pi_d_a8_a4_proc_0
      + 1288.341352214684 pi_d_a8_a4_proc_1
      + 2489.740373540647 pi_d_a4_a9_proc_2
      + 3599.193590442511 pi_d_a4_a9_proc_0
      + 3757.702470864729 pi_d_a4_a9_proc_1 + 47.335431811189 pi_d_a9_a4_proc_2
      + 1156.788648713053 pi_d_a9_a4_proc_0
      + 1315.297529135271 pi_d_a9_a4_proc_1
      + 3472.749692689416 pi_d_a5_a6_proc_2
      + 2049.955372824753 pi_d_a5_a6_proc_3
      + 3307.450212845902 pi_d_a5_a6_proc_0
      + 2539.704380152303 pi_d_a5_a6_proc_1
      + 1592.819863433229 pi_d_a6_a5_proc_2 + 170.025543568566 pi_d_a6_a5_proc_3
      + 1427.520383589714 pi_d_a6_a5_proc_0 + 659.774550896116 pi_d_a6_a5_proc_1
      + 2695.489082853261 pi_d_a5_a7_proc_3 + 951.978810123653 pi_d_a5_a7_proc_1
      + 1743.510879222216 pi_d_a7_a5_proc_3 + 0.000606492608 pi_d_a7_a5_proc_1
      + 1109.634682669169 pi_d_a5_a8_proc_3 + 0.164681861367 pi_d_a5_a8_proc_0
      + 634.133970606467 pi_d_a5_a8_proc_1 + 3329.346044703618 pi_d_a8_a5_proc_3
      + 2219.876043895816 pi_d_a8_a5_proc_0
      + 2853.845332640916 pi_d_a8_a5_proc_1
      + 3328.469585463613 pi_d_a5_a9_proc_2
      + 1901.940922473232 pi_d_a5_a9_proc_3
      + 3011.509674748799 pi_d_a5_a9_proc_0
      + 2535.959671923517 pi_d_a5_a9_proc_1
      + 1744.529658159032 pi_d_a9_a5_proc_2 + 318.000995168651 pi_d_a9_a5_proc_3
      + 1427.569747444218 pi_d_a9_a5_proc_0 + 952.019744618936 pi_d_a9_a5_proc_1
      + 2551.240232548325 pi_d_a6_a7_proc_3
      + 2248.499512753098 pi_d_a6_a7_proc_1 + 302.740721621902 pi_d_a7_a6_proc_3
      + 0.000001826675 pi_d_a7_a6_proc_1 + 1016.935908906552 pi_d_a6_a8_proc_3
      + 847.939332583567 pi_d_a6_a8_proc_0 + 1982.204749778231 pi_d_a6_a8_proc_1
      + 1837.025810560986 pi_d_a8_a6_proc_3
      + 1668.029234238000 pi_d_a8_a6_proc_0
      + 2802.294651432665 pi_d_a8_a6_proc_1
      + 2388.079801197831 pi_d_a6_a9_proc_2 + 172.756099816148 pi_d_a6_a9_proc_3
      + 2222.798276576532 pi_d_a6_a9_proc_0
      + 2247.544402200814 pi_d_a6_a9_proc_1
      + 2677.490511302169 pi_d_a9_a6_proc_2 + 462.166809920485 pi_d_a9_a6_proc_3
      + 2512.208986680869 pi_d_a9_a6_proc_0
      + 2536.955112305151 pi_d_a9_a6_proc_1
      + 3784.215457050870 pi_d_a7_a8_proc_3
      + 2516.225017865391 pi_d_a7_a8_proc_1
      + 1288.765308098826 pi_d_a8_a7_proc_3 + 20.774868913346 pi_d_a8_a7_proc_1
      + 2690.756111848197 pi_d_a7_a9_proc_3
      + 2532.285134175705 pi_d_a7_a9_proc_1 + 163.185843570594 pi_d_a9_a7_proc_3
      + 4.714865898102 pi_d_a9_a7_proc_1 + 1902.333259143478 pi_d_a8_a9_proc_3
      + 1585.410595074911 pi_d_a8_a9_proc_0
      + 3011.871842137892 pi_d_a8_a9_proc_1 + 951.589461572624 pi_d_a9_a8_proc_3
      + 634.666797504057 pi_d_a9_a8_proc_0 + 2061.128044567038 pi_d_a9_a8_proc_1
      + 0.000000000029 pi_y2_a0_proc_1 + 0.999999999971 pi_y2_a0_proc_3
      + 0.875002429209 pi_y2_a1_proc_0 + 0.000091856811 pi_y2_a1_proc_1
      + 0.000027665083 pi_y2_a1_proc_2 + 0.124878048897 pi_y2_a1_proc_3
      + 0.875030458002 pi_y2_a2_proc_1 + 0.000000029744 pi_y2_a2_proc_2
      + 0.124969512253 pi_y2_a2_proc_3 + 0.000000000000 pi_y2_a3_proc_0
      + 0.000000000000 pi_y2_a3_proc_1 + 0.963920652663 pi_y2_a3_proc_2
      + 0.036079347337 pi_y2_a3_proc_3 + 0.000029891700 pi_y2_a4_proc_0
      + 0.000000000000 pi_y2_a4_proc_1 + 0.999970108300 pi_y2_a4_proc_2
      + 0.124991570313 pi_y2_a5_proc_0 + 0.625008116505 pi_y2_a5_proc_1
      + 0.000000298256 pi_y2_a5_proc_2 + 0.250000014925 pi_y2_a5_proc_3
      + 0.008300781250 pi_y2_a6_proc_0 + 0.113762021094 pi_y2_a6_proc_1
      + 0.002929687500 pi_y2_a6_proc_2 + 0.875007510156 pi_y2_a6_proc_3
      + 0.999999999971 pi_y2_a7_proc_1 + 0.000000000029 pi_y2_a7_proc_3
      + 0.999992370634 pi_y2_a8_proc_0 + 0.000000044675 pi_y2_a8_proc_1
      + 0.000007584691 pi_y2_a8_proc_3 + 0.124977111787 pi_y2_a9_proc_0
      + 0.000000000000 pi_y2_a9_proc_1 + 0.000000000000 pi_y2_a9_proc_2
      + 0.875022888213 pi_y2_a9_proc_3
Subject To
 c1: 0.001107419712 pi_nr_a0 + 0.005102040816 pi_nr_a1 + 0.001367989056 pi_nr_a2
     + 0.001070663812 pi_nr_a3 + 0.000810372771 pi_nr_a4
     + 0.001104972376 pi_nr_a5 + 0.002433090024 pi_nr_a6
     + 0.000801924619 pi_nr_a7 + 0.001402524544 pi_nr_a8
     + 0.001226993865 pi_nr_a9 + 2 pi_p_a0_a1 + pi_p_a0_a2 + 2 pi_p_a3_a5
     + pi_p_a6_a7 + pi_p_a1_a8 + pi_p_a5_a5 + pi_p_a9_a7 + pi_p_a7_a7
     + pi_p_a3_a8 + 2538 pi_d_a0_a1_proc_3 + 3806 pi_d_a0_a1_proc_1
     - pi_d_a1_a0_proc_3 + 1267 pi_d_a1_a0_proc_1 + 2 pi_d_a0_a2_proc_3
     + 2 pi_d_a0_a2_proc_1 + 2535 pi_d_a2_a0_proc_3 + 2535 pi_d_a2_a0_proc_1
     + 2537 pi_d_a0_a3_proc_3 + 3805 pi_d_a0_a3_proc_1 + 1268 pi_d_a3_a0_proc_1
     + 5073 pi_d_a0_a4_proc_1 + 2538 pi_d_a0_a5_proc_3 + 2538 pi_d_a0_a5_proc_1
     - pi_d_a5_a0_proc_3 - pi_d_a5_a0_proc_1 + pi_d_a0_a6_proc_3
     + 2537 pi_d_a0_a6_proc_1 + 2536 pi_d_a6_a0_proc_1 + 18 pi_d_a0_a7_proc_3
     + 18 pi_d_a0_a7_proc_1 + 2519 pi_d_a7_a0_proc_3 + 2519 pi_d_a7_a0_proc_1
     + 12 pi_d_a0_a8_proc_3 + 1280 pi_d_a0_a8_proc_1 + 2525 pi_d_a8_a0_proc_3
     + 3793 pi_d_a8_a0_proc_1 + 2 pi_d_a0_a9_proc_3 + 2538 pi_d_a0_a9_proc_1
     - pi_d_a9_a0_proc_3 + 2535 pi_d_a9_a0_proc_1 + 3804 pi_d_a1_a2_proc_2
     + 3804 pi_d_a1_a2_proc_3 + 2536 pi_d_a1_a2_proc_1 + 1269 pi_d_a2_a1_proc_2
     + 1269 pi_d_a2_a1_proc_3 + pi_d_a2_a1_proc_1 + 2536 pi_d_a1_a3_proc_2
     + 3804 pi_d_a1_a3_proc_3 + 2536 pi_d_a1_a3_proc_0 + 3804 pi_d_a1_a3_proc_1
     + pi_d_a3_a1_proc_2 + 1269 pi_d_a3_a1_proc_3 + pi_d_a3_a1_proc_0
     + 1269 pi_d_a3_a1_proc_1 + 1268 pi_d_a1_a4_proc_1 + 2537 pi_d_a4_a1_proc_2
     + 2537 pi_d_a4_a1_proc_0 + 3805 pi_d_a4_a1_proc_1 + 1303 pi_d_a1_a5_proc_2
     + 1303 pi_d_a1_a5_proc_3 + 35 pi_d_a1_a5_proc_0 + 35 pi_d_a1_a5_proc_1
     + 3770 pi_d_a5_a1_proc_2 + 3770 pi_d_a5_a1_proc_3 + 2502 pi_d_a5_a1_proc_0
     + 2502 pi_d_a5_a1_proc_1 + 3804 pi_d_a1_a6_proc_2 + 2536 pi_d_a1_a6_proc_3
     + 2536 pi_d_a1_a6_proc_0 + 3804 pi_d_a1_a6_proc_1 + 1269 pi_d_a6_a1_proc_2
     + pi_d_a6_a1_proc_3 + pi_d_a6_a1_proc_0 + 1269 pi_d_a6_a1_proc_1
     + 3805 pi_d_a1_a7_proc_3 + 2537 pi_d_a1_a7_proc_1 + 1268 pi_d_a7_a1_proc_3
     + 2537 pi_d_a1_a8_proc_3 + pi_d_a1_a8_proc_0 + 2537 pi_d_a1_a8_proc_1
     + 2536 pi_d_a8_a1_proc_3 + 2536 pi_d_a8_a1_proc_1 + 1617 pi_d_a1_a9_proc_2
     + 349 pi_d_a1_a9_proc_3 + 349 pi_d_a1_a9_proc_0 + 1617 pi_d_a1_a9_proc_1
     + 3456 pi_d_a9_a1_proc_2 + 2188 pi_d_a9_a1_proc_3 + 2188 pi_d_a9_a1_proc_0
     + 3456 pi_d_a9_a1_proc_1 + 1268 pi_d_a2_a3_proc_3 + 2537 pi_d_a3_a2_proc_2
     + 3805 pi_d_a3_a2_proc_3 + 2537 pi_d_a3_a2_proc_1 + 2537 pi_d_a4_a2_proc_2
     + 2537 pi_d_a4_a2_proc_1 + 2537 pi_d_a2_a5_proc_2 + 2537 pi_d_a2_a5_proc_3
     + pi_d_a2_a5_proc_1 + 2536 pi_d_a5_a2_proc_2 + 2536 pi_d_a5_a2_proc_3
     + 3805 pi_d_a2_a6_proc_2 + 2537 pi_d_a2_a6_proc_3 + 2537 pi_d_a2_a6_proc_1
     + 1268 pi_d_a6_a2_proc_2 + 2537 pi_d_a2_a7_proc_3 + pi_d_a2_a7_proc_1
     + 2536 pi_d_a7_a2_proc_3 + 3805 pi_d_a2_a8_proc_3 + 2537 pi_d_a2_a8_proc_1
     + 1268 pi_d_a8_a2_proc_3 + 1308 pi_d_a2_a9_proc_2 + 40 pi_d_a2_a9_proc_3
     + 40 pi_d_a2_a9_proc_1 + 3765 pi_d_a9_a2_proc_2 + 2497 pi_d_a9_a2_proc_3
     + 2497 pi_d_a9_a2_proc_1 + pi_d_a3_a4_proc_2 + 2537 pi_d_a3_a4_proc_0
     + 2537 pi_d_a3_a4_proc_1 + 2536 pi_d_a4_a3_proc_0 + 2536 pi_d_a4_a3_proc_1
     + 2 pi_d_a3_a5_proc_2 + 1270 pi_d_a3_a5_proc_3 + 1270 pi_d_a3_a5_proc_0
     + 2 pi_d_a3_a5_proc_1 + 2535 pi_d_a5_a3_proc_2 + 3803 pi_d_a5_a3_proc_3
     + 3803 pi_d_a5_a3_proc_0 + 2535 pi_d_a5_a3_proc_1 + 2537 pi_d_a3_a6_proc_2
     + 2537 pi_d_a3_a6_proc_3 + 3805 pi_d_a3_a6_proc_0 + 3805 pi_d_a3_a6_proc_1
     + 1268 pi_d_a6_a3_proc_0 + 1268 pi_d_a6_a3_proc_1 + 1291 pi_d_a3_a7_proc_3
     + 23 pi_d_a3_a7_proc_1 + 3782 pi_d_a7_a3_proc_3 + 2514 pi_d_a7_a3_proc_1
     + 3805 pi_d_a3_a8_proc_3 + 2537 pi_d_a3_a8_proc_0 + 3805 pi_d_a3_a8_proc_1
     + 1268 pi_d_a8_a3_proc_3 + 1268 pi_d_a8_a3_proc_1 + 2493 pi_d_a3_a9_proc_2
     + 2493 pi_d_a3_a9_proc_3 + 3761 pi_d_a3_a9_proc_0 + 3761 pi_d_a3_a9_proc_1
     + 44 pi_d_a9_a3_proc_2 + 44 pi_d_a9_a3_proc_3 + 1312 pi_d_a9_a3_proc_0
     + 1312 pi_d_a9_a3_proc_1 + 2537 pi_d_a4_a5_proc_2 + 3805 pi_d_a4_a5_proc_0
     + 2537 pi_d_a4_a5_proc_1 + 1268 pi_d_a5_a4_proc_0 + 47 pi_d_a4_a6_proc_2
     + 1315 pi_d_a4_a6_proc_0 + 1315 pi_d_a4_a6_proc_1 + 2490 pi_d_a6_a4_proc_2
     + 3758 pi_d_a6_a4_proc_0 + 3758 pi_d_a6_a4_proc_1 + 2 pi_d_a4_a7_proc_1
     + 2535 pi_d_a7_a4_proc_1 + 2536 pi_d_a4_a8_proc_0 + 3804 pi_d_a4_a8_proc_1
     + pi_d_a8_a4_proc_0 + 1269 pi_d_a8_a4_proc_1 + 2537 pi_d_a4_a9_proc_2
     + 3805 pi_d_a4_a9_proc_0 + 3805 pi_d_a4_a9_proc_1 + 1268 pi_d_a9_a4_proc_0
     + 1268 pi_d_a9_a4_proc_1 + 3804 pi_d_a5_a6_proc_2 + 2536 pi_d_a5_a6_proc_3
     + 3804 pi_d_a5_a6_proc_0 + 2536 pi_d_a5_a6_proc_1 + 1269 pi_d_a6_a5_proc_2
     + pi_d_a6_a5_proc_3 + 1269 pi_d_a6_a5_proc_0 + pi_d_a6_a5_proc_1
     + 2537 pi_d_a5_a7_proc_3 + pi_d_a5_a7_proc_1 + 2536 pi_d_a7_a5_proc_3
     + 1268 pi_d_a5_a8_proc_3 + 3805 pi_d_a8_a5_proc_3 + 2537 pi_d_a8_a5_proc_0
     + 2537 pi_d_a8_a5_proc_1 + 3804 pi_d_a5_a9_proc_2 + 2536 pi_d_a5_a9_proc_3
     + 3804 pi_d_a5_a9_proc_0 + 2536 pi_d_a5_a9_proc_1 + 1269 pi_d_a9_a5_proc_2
     + pi_d_a9_a5_proc_3 + 1269 pi_d_a9_a5_proc_0 + pi_d_a9_a5_proc_1
     + 2537 pi_d_a6_a7_proc_3 + 2537 pi_d_a6_a7_proc_1 + 25 pi_d_a6_a8_proc_3
     + 25 pi_d_a6_a8_proc_0 + 1293 pi_d_a6_a8_proc_1 + 2512 pi_d_a8_a6_proc_3
     + 2512 pi_d_a8_a6_proc_0 + 3780 pi_d_a8_a6_proc_1 + 2537 pi_d_a6_a9_proc_2
     + pi_d_a6_a9_proc_3 + 2537 pi_d_a6_a9_proc_0 + 2537 pi_d_a6_a9_proc_1
     + 2536 pi_d_a9_a6_proc_2 + 2536 pi_d_a9_a6_proc_0 + 2536 pi_d_a9_a6_proc_1
     + 3804 pi_d_a7_a8_proc_3 + 2536 pi_d_a7_a8_proc_1 + 1269 pi_d_a8_a7_proc_3
     + pi_d_a8_a7_proc_1 + 2536 pi_d_a7_a9_proc_3 + 2536 pi_d_a7_a9_proc_1
     + pi_d_a9_a7_proc_3 + pi_d_a9_a7_proc_1 + 2536 pi_d_a8_a9_proc_3
     + 2536 pi_d_a8_a9_proc_0 + 3804 pi_d_a8_a9_proc_1 + pi_d_a9_a8_proc_3
     + pi_d_a9_a8_proc_0 + 1269 pi_d_a9_a8_proc_1 + pi_y2_a0_proc_3
     + pi_y2_a1_proc_0 + pi_y2_a2_proc_1 + pi_y2_a3_proc_2 + pi_y2_a4_proc_2
     + pi_y2_a5_proc_1 + pi_y2_a6_proc_3 + pi_y2_a7_proc_1 + pi_y2_a8_proc_0
     + pi_y2_a9_proc_3 = 0.000199521149
 c2: pi_nr_a0 + pi_nr_a1 + pi_nr_a2 + pi_nr_a3 + pi_nr_a4 + pi_nr_a5 + pi_nr_a6
     + pi_nr_a7 + pi_nr_a8 + pi_nr_a9 - pi_y1_a0 - pi_y1_a1 - pi_y1_a2
     - pi_y1_a3 - pi_y1_a4 - pi_y1_a5 - pi_y1_a6 - pi_y1_a7 - pi_y1_a8
     - pi_y1_a9 >= 1
 c3: pi_p_a0_a1 + pi_p_a0_a2 - pi_p_a3_a0 - pi_p_a4_a0 + pi_d_a0_a1_proc_3
     + pi_d_a0_a1_proc_1 - pi_d_a1_a0_proc_3 - pi_d_a1_a0_proc_1
     + pi_d_a0_a2_proc_3 + pi_d_a0_a2_proc_1 - pi_d_a2_a0_proc_3
     - pi_d_a2_a0_proc_1 + pi_d_a0_a3_proc_3 + pi_d_a0_a3_proc_1
     - pi_d_a3_a0_proc_3 - pi_d_a3_a0_proc_1 + pi_d_a0_a4_proc_1
     - pi_d_a4_a0_proc_1 + pi_d_a0_a5_proc_3 + pi_d_a0_a5_proc_1
     - pi_d_a5_a0_proc_3 - pi_d_a5_a0_proc_1 + pi_d_a0_a6_proc_3
     + pi_d_a0_a6_proc_1 - pi_d_a6_a0_proc_3 - pi_d_a6_a0_proc_1
     + pi_d_a0_a7_proc_3 + pi_d_a0_a7_proc_1 - pi_d_a7_a0_proc_3
     - pi_d_a7_a0_proc_1 + pi_d_a0_a8_proc_3 + pi_d_a0_a8_proc_1
     - pi_d_a8_a0_proc_3 - pi_d_a8_a0_proc_1 + pi_d_a0_a9_proc_3
     + pi_d_a0_a9_proc_1 - pi_d_a9_a0_proc_3 - pi_d_a9_a0_proc_1 >= 0
 c4: 1140 pi_p_a0_a1 + 1140 pi_p_a0_a2 + 1140 pi_d_a0_a1_proc_1
     + 1140 pi_d_a0_a2_proc_1 + 1140 pi_d_a0_a3_proc_1 + 1140 pi_d_a0_a4_proc_1
     + 1140 pi_d_a0_a5_proc_1 + 1140 pi_d_a0_a6_proc_1 + 1140 pi_d_a0_a7_proc_1
     + 1140 pi_d_a0_a8_proc_1 + 1140 pi_d_a0_a9_proc_1 + pi_y1_a0
     + pi_y2_a0_proc_1 >= 0
 c5: 903 pi_p_a0_a1 + 903 pi_p_a0_a2 + 903 pi_d_a0_a1_proc_3
     + 903 pi_d_a0_a2_proc_3 + 903 pi_d_a0_a3_proc_3 + 903 pi_d_a0_a5_proc_3
     + 903 pi_d_a0_a6_proc_3 + 903 pi_d_a0_a7_proc_3 + 903 pi_d_a0_a8_proc_3
     + 903 pi_d_a0_a9_proc_3 + pi_y1_a0 + pi_y2_a0_proc_3 >= 0
 c6: - pi_p_a0_a1 - pi_p_a7_a1 - pi_p_a8_a1 + pi_p_a1_a8 + pi_p_a1_a3
     - pi_d_a0_a1_proc_3 - pi_d_a0_a1_proc_1 + pi_d_a1_a0_proc_3
     + pi_d_a1_a0_proc_1 + pi_d_a1_a2_proc_2 + pi_d_a1_a2_proc_3
     + pi_d_a1_a2_proc_1 - pi_d_a2_a1_proc_2 - pi_d_a2_a1_proc_3
     - pi_d_a2_a1_proc_1 + pi_d_a1_a3_proc_2 + pi_d_a1_a3_proc_3
     + pi_d_a1_a3_proc_0 + pi_d_a1_a3_proc_1 - pi_d_a3_a1_proc_2
     - pi_d_a3_a1_proc_3 - pi_d_a3_a1_proc_0 - pi_d_a3_a1_proc_1
     + pi_d_a1_a4_proc_2 + pi_d_a1_a4_proc_0 + pi_d_a1_a4_proc_1
     - pi_d_a4_a1_proc_2 - pi_d_a4_a1_proc_0 - pi_d_a4_a1_proc_1
     + pi_d_a1_a5_proc_2 + pi_d_a1_a5_proc_3 + pi_d_a1_a5_proc_0
     + pi_d_a1_a5_proc_1 - pi_d_a5_a1_proc_2 - pi_d_a5_a1_proc_3
     - pi_d_a5_a1_proc_0 - pi_d_a5_a1_proc_1 + pi_d_a1_a6_proc_2
     + pi_d_a1_a6_proc_3 + pi_d_a1_a6_proc_0 + pi_d_a1_a6_proc_1
     - pi_d_a6_a1_proc_2 - pi_d_a6_a1_proc_3 - pi_d_a6_a1_proc_0
     - pi_d_a6_a1_proc_1 + pi_d_a1_a7_proc_3 + pi_d_a1_a7_proc_1
     - pi_d_a7_a1_proc_3 - pi_d_a7_a1_proc_1 + pi_d_a1_a8_proc_3
     + pi_d_a1_a8_proc_0 + pi_d_a1_a8_proc_1 - pi_d_a8_a1_proc_3
     - pi_d_a8_a1_proc_0 - pi_d_a8_a1_proc_1 + pi_d_a1_a9_proc_2
     + pi_d_a1_a9_proc_3 + pi_d_a1_a9_proc_0 + pi_d_a1_a9_proc_1
     - pi_d_a9_a1_proc_2 - pi_d_a9_a1_proc_3 - pi_d_a9_a1_proc_0
     - pi_d_a9_a1_proc_1 >= 0
 c7: 196 pi_p_a1_a8 + 196 pi_p_a1_a3 + 196 pi_d_a1_a3_proc_0
     + 196 pi_d_a1_a4_proc_0 + 196 pi_d_a1_a5_proc_0 + 196 pi_d_a1_a6_proc_0
     + 196 pi_d_a1_a8_proc_0 + 196 pi_d_a1_a9_proc_0 + pi_y1_a1
     + pi_y2_a1_proc_0 >= 0
 c8: 744 pi_p_a1_a8 + 744 pi_p_a1_a3 + 744 pi_d_a1_a0_proc_1
     + 744 pi_d_a1_a2_proc_1 + 744 pi_d_a1_a3_proc_1 + 744 pi_d_a1_a4_proc_1
     + 744 pi_d_a1_a5_proc_1 + 744 pi_d_a1_a6_proc_1 + 744 pi_d_a1_a7_proc_1
     + 744 pi_d_a1_a8_proc_1 + 744 pi_d_a1_a9_proc_1 + pi_y1_a1
     + pi_y2_a1_proc_1 >= 0
 c9: 211 pi_p_a1_a8 + 211 pi_p_a1_a3 + 211 pi_d_a1_a2_proc_2
     + 211 pi_d_a1_a3_proc_2 + 211 pi_d_a1_a4_proc_2 + 211 pi_d_a1_a5_proc_2
     + 211 pi_d_a1_a6_proc_2 + 211 pi_d_a1_a9_proc_2 + pi_y1_a1
     + pi_y2_a1_proc_2 >= 0
 c10: 1057 pi_p_a1_a8 + 1057 pi_p_a1_a3 + 1057 pi_d_a1_a0_proc_3
      + 1057 pi_d_a1_a2_proc_3 + 1057 pi_d_a1_a3_proc_3 + 1057 pi_d_a1_a5_proc_3
      + 1057 pi_d_a1_a6_proc_3 + 1057 pi_d_a1_a7_proc_3 + 1057 pi_d_a1_a8_proc_3
      + 1057 pi_d_a1_a9_proc_3 + pi_y1_a1 + pi_y2_a1_proc_3 >= 0
 c11: - pi_p_a0_a2 + pi_p_a2_a4 - pi_d_a0_a2_proc_3 - pi_d_a0_a2_proc_1
      + pi_d_a2_a0_proc_3 + pi_d_a2_a0_proc_1 - pi_d_a1_a2_proc_2
      - pi_d_a1_a2_proc_3 - pi_d_a1_a2_proc_1 + pi_d_a2_a1_proc_2
      + pi_d_a2_a1_proc_3 + pi_d_a2_a1_proc_1 + pi_d_a2_a3_proc_2
      + pi_d_a2_a3_proc_3 + pi_d_a2_a3_proc_1 - pi_d_a3_a2_proc_2
      - pi_d_a3_a2_proc_3 - pi_d_a3_a2_proc_1 + pi_d_a2_a4_proc_2
      + pi_d_a2_a4_proc_1 - pi_d_a4_a2_proc_2 - pi_d_a4_a2_proc_1
      + pi_d_a2_a5_proc_2 + pi_d_a2_a5_proc_3 + pi_d_a2_a5_proc_1
      - pi_d_a5_a2_proc_2 - pi_d_a5_a2_proc_3 - pi_d_a5_a2_proc_1
      + pi_d_a2_a6_proc_2 + pi_d_a2_a6_proc_3 + pi_d_a2_a6_proc_1
      - pi_d_a6_a2_proc_2 - pi_d_a6_a2_proc_3 - pi_d_a6_a2_proc_1
      + pi_d_a2_a7_proc_3 + pi_d_a2_a7_proc_1 - pi_d_a7_a2_proc_3
      - pi_d_a7_a2_proc_1 + pi_d_a2_a8_proc_3 + pi_d_a2_a8_proc_1
      - pi_d_a8_a2_proc_3 - pi_d_a8_a2_proc_1 + pi_d_a2_a9_proc_2
      + pi_d_a2_a9_proc_3 + pi_d_a2_a9_proc_1 - pi_d_a9_a2_proc_2
      - pi_d_a9_a2_proc_3 - pi_d_a9_a2_proc_1 >= 0
 c12: 731 pi_p_a2_a4 + 731 pi_d_a2_a0_proc_1 + 731 pi_d_a2_a1_proc_1
      + 731 pi_d_a2_a3_proc_1 + 731 pi_d_a2_a4_proc_1 + 731 pi_d_a2_a5_proc_1
      + 731 pi_d_a2_a6_proc_1 + 731 pi_d_a2_a7_proc_1 + 731 pi_d_a2_a8_proc_1
      + 731 pi_d_a2_a9_proc_1 + pi_y1_a2 + pi_y2_a2_proc_1 >= 0
 c13: 1014 pi_p_a2_a4 + 1014 pi_d_a2_a1_proc_2 + 1014 pi_d_a2_a3_proc_2
      + 1014 pi_d_a2_a4_proc_2 + 1014 pi_d_a2_a5_proc_2 + 1014 pi_d_a2_a6_proc_2
      + 1014 pi_d_a2_a9_proc_2 + pi_y1_a2 + pi_y2_a2_proc_2 >= 0
 c14: 633 pi_p_a2_a4 + 633 pi_d_a2_a0_proc_3 + 633 pi_d_a2_a1_proc_3
      + 633 pi_d_a2_a3_proc_3 + 633 pi_d_a2_a5_proc_3 + 633 pi_d_a2_a6_proc_3
      + 633 pi_d_a2_a7_proc_3 + 633 pi_d_a2_a8_proc_3 + 633 pi_d_a2_a9_proc_3
      + pi_y1_a2 + pi_y2_a2_proc_3 >= 0
 c15: pi_p_a3_a0 + pi_p_a3_a5 - pi_p_a1_a3 - pi_p_a6_a3 + pi_p_a3_a8
      - pi_d_a0_a3_proc_3 - pi_d_a0_a3_proc_1 + pi_d_a3_a0_proc_3
      + pi_d_a3_a0_proc_1 - pi_d_a1_a3_proc_2 - pi_d_a1_a3_proc_3
      - pi_d_a1_a3_proc_0 - pi_d_a1_a3_proc_1 + pi_d_a3_a1_proc_2
      + pi_d_a3_a1_proc_3 + pi_d_a3_a1_proc_0 + pi_d_a3_a1_proc_1
      - pi_d_a2_a3_proc_2 - pi_d_a2_a3_proc_3 - pi_d_a2_a3_proc_1
      + pi_d_a3_a2_proc_2 + pi_d_a3_a2_proc_3 + pi_d_a3_a2_proc_1
      + pi_d_a3_a4_proc_2 + pi_d_a3_a4_proc_0 + pi_d_a3_a4_proc_1
      - pi_d_a4_a3_proc_2 - pi_d_a4_a3_proc_0 - pi_d_a4_a3_proc_1
      + pi_d_a3_a5_proc_2 + pi_d_a3_a5_proc_3 + pi_d_a3_a5_proc_0
      + pi_d_a3_a5_proc_1 - pi_d_a5_a3_proc_2 - pi_d_a5_a3_proc_3
      - pi_d_a5_a3_proc_0 - pi_d_a5_a3_proc_1 + pi_d_a3_a6_proc_2
      + pi_d_a3_a6_proc_3 + pi_d_a3_a6_proc_0 + pi_d_a3_a6_proc_1
      - pi_d_a6_a3_proc_2 - pi_d_a6_a3_proc_3 - pi_d_a6_a3_proc_0
      - pi_d_a6_a3_proc_1 + pi_d_a3_a7_proc_3 + pi_d_a3_a7_proc_1
      - pi_d_a7_a3_proc_3 - pi_d_a7_a3_proc_1 + pi_d_a3_a8_proc_3
      + pi_d_a3_a8_proc_0 + pi_d_a3_a8_proc_1 - pi_d_a8_a3_proc_3
      - pi_d_a8_a3_proc_0 - pi_d_a8_a3_proc_1 + pi_d_a3_a9_proc_2
      + pi_d_a3_a9_proc_3 + pi_d_a3_a9_proc_0 + pi_d_a3_a9_proc_1
      - pi_d_a9_a3_proc_2 - pi_d_a9_a3_proc_3 - pi_d_a9_a3_proc_0
      - pi_d_a9_a3_proc_1 >= 0
 c16: 979 pi_p_a3_a0 + 979 pi_p_a3_a5 + 979 pi_p_a3_a8 + 979 pi_d_a3_a1_proc_0
      + 979 pi_d_a3_a4_proc_0 + 979 pi_d_a3_a5_proc_0 + 979 pi_d_a3_a6_proc_0
      + 979 pi_d_a3_a8_proc_0 + 979 pi_d_a3_a9_proc_0 + pi_y1_a3
      + pi_y2_a3_proc_0 >= 0
 c17: 1265 pi_p_a3_a0 + 1265 pi_p_a3_a5 + 1265 pi_p_a3_a8
      + 1265 pi_d_a3_a0_proc_1 + 1265 pi_d_a3_a1_proc_1 + 1265 pi_d_a3_a2_proc_1
      + 1265 pi_d_a3_a4_proc_1 + 1265 pi_d_a3_a5_proc_1 + 1265 pi_d_a3_a6_proc_1
      + 1265 pi_d_a3_a7_proc_1 + 1265 pi_d_a3_a8_proc_1 + 1265 pi_d_a3_a9_proc_1
      + pi_y1_a3 + pi_y2_a3_proc_1 >= 0
 c18: 934 pi_p_a3_a0 + 934 pi_p_a3_a5 + 934 pi_p_a3_a8 + 934 pi_d_a3_a1_proc_2
      + 934 pi_d_a3_a2_proc_2 + 934 pi_d_a3_a4_proc_2 + 934 pi_d_a3_a5_proc_2
      + 934 pi_d_a3_a6_proc_2 + 934 pi_d_a3_a9_proc_2 + pi_y1_a3
      + pi_y2_a3_proc_2 >= 0
 c19: 933 pi_p_a3_a0 + 933 pi_p_a3_a5 + 933 pi_p_a3_a8 + 933 pi_d_a3_a0_proc_3
      + 933 pi_d_a3_a1_proc_3 + 933 pi_d_a3_a2_proc_3 + 933 pi_d_a3_a5_proc_3
      + 933 pi_d_a3_a6_proc_3 + 933 pi_d_a3_a7_proc_3 + 933 pi_d_a3_a8_proc_3
      + 933 pi_d_a3_a9_proc_3 + pi_y1_a3 + pi_y2_a3_proc_3 >= 0
 c20: pi_p_a4_a0 - pi_p_a2_a4 - pi_p_a6_a4 - pi_d_a0_a4_proc_1
      + pi_d_a4_a0_proc_1 - pi_d_a1_a4_proc_2 - pi_d_a1_a4_proc_0
      - pi_d_a1_a4_proc_1 + pi_d_a4_a1_proc_2 + pi_d_a4_a1_proc_0
      + pi_d_a4_a1_proc_1 - pi_d_a2_a4_proc_2 - pi_d_a2_a4_proc_1
      + pi_d_a4_a2_proc_2 + pi_d_a4_a2_proc_1 - pi_d_a3_a4_proc_2
      - pi_d_a3_a4_proc_0 - pi_d_a3_a4_proc_1 + pi_d_a4_a3_proc_2
      + pi_d_a4_a3_proc_0 + pi_d_a4_a3_proc_1 + pi_d_a4_a5_proc_2
      + pi_d_a4_a5_proc_0 + pi_d_a4_a5_proc_1 - pi_d_a5_a4_proc_2
      - pi_d_a5_a4_proc_0 - pi_d_a5_a4_proc_1 + pi_d_a4_a6_proc_2
      + pi_d_a4_a6_proc_0 + pi_d_a4_a6_proc_1 - pi_d_a6_a4_proc_2
      - pi_d_a6_a4_proc_0 - pi_d_a6_a4_proc_1 + pi_d_a4_a7_proc_1
      - pi_d_a7_a4_proc_1 + pi_d_a4_a8_proc_0 + pi_d_a4_a8_proc_1
      - pi_d_a8_a4_proc_0 - pi_d_a8_a4_proc_1 + pi_d_a4_a9_proc_2
      + pi_d_a4_a9_proc_0 + pi_d_a4_a9_proc_1 - pi_d_a9_a4_proc_2
      - pi_d_a9_a4_proc_0 - pi_d_a9_a4_proc_1 >= 0
 c21: 832 pi_p_a4_a0 + 832 pi_d_a4_a1_proc_0 + 832 pi_d_a4_a3_proc_0
      + 832 pi_d_a4_a5_proc_0 + 832 pi_d_a4_a6_proc_0 + 832 pi_d_a4_a8_proc_0
      + 832 pi_d_a4_a9_proc_0 + pi_y1_a4 + pi_y2_a4_proc_0 >= 0
 c22: 1140 pi_p_a4_a0 + 1140 pi_d_a4_a0_proc_1 + 1140 pi_d_a4_a1_proc_1
      + 1140 pi_d_a4_a2_proc_1 + 1140 pi_d_a4_a3_proc_1 + 1140 pi_d_a4_a5_proc_1
      + 1140 pi_d_a4_a6_proc_1 + 1140 pi_d_a4_a7_proc_1 + 1140 pi_d_a4_a8_proc_1
      + 1140 pi_d_a4_a9_proc_1 + pi_y1_a4 + pi_y2_a4_proc_1 >= 0
 c23: 1234 pi_p_a4_a0 + 1234 pi_d_a4_a1_proc_2 + 1234 pi_d_a4_a2_proc_2
      + 1234 pi_d_a4_a3_proc_2 + 1234 pi_d_a4_a5_proc_2 + 1234 pi_d_a4_a6_proc_2
      + 1234 pi_d_a4_a9_proc_2 + pi_y1_a4 + pi_y2_a4_proc_2 >= 0
 c24: - pi_p_a3_a5 + pi_p_a5_a6 + pi_p_a5_a9 - pi_p_a7_a5 - pi_d_a0_a5_proc_3
      - pi_d_a0_a5_proc_1 + pi_d_a5_a0_proc_3 + pi_d_a5_a0_proc_1
      - pi_d_a1_a5_proc_2 - pi_d_a1_a5_proc_3 - pi_d_a1_a5_proc_0
      - pi_d_a1_a5_proc_1 + pi_d_a5_a1_proc_2 + pi_d_a5_a1_proc_3
      + pi_d_a5_a1_proc_0 + pi_d_a5_a1_proc_1 - pi_d_a2_a5_proc_2
      - pi_d_a2_a5_proc_3 - pi_d_a2_a5_proc_1 + pi_d_a5_a2_proc_2
      + pi_d_a5_a2_proc_3 + pi_d_a5_a2_proc_1 - pi_d_a3_a5_proc_2
      - pi_d_a3_a5_proc_3 - pi_d_a3_a5_proc_0 - pi_d_a3_a5_proc_1
      + pi_d_a5_a3_proc_2 + pi_d_a5_a3_proc_3 + pi_d_a5_a3_proc_0
      + pi_d_a5_a3_proc_1 - pi_d_a4_a5_proc_2 - pi_d_a4_a5_proc_0
      - pi_d_a4_a5_proc_1 + pi_d_a5_a4_proc_2 + pi_d_a5_a4_proc_0
      + pi_d_a5_a4_proc_1 + pi_d_a5_a6_proc_2 + pi_d_a5_a6_proc_3
      + pi_d_a5_a6_proc_0 + pi_d_a5_a6_proc_1 - pi_d_a6_a5_proc_2
      - pi_d_a6_a5_proc_3 - pi_d_a6_a5_proc_0 - pi_d_a6_a5_proc_1
      + pi_d_a5_a7_proc_3 + pi_d_a5_a7_proc_1 - pi_d_a7_a5_proc_3
      - pi_d_a7_a5_proc_1 + pi_d_a5_a8_proc_3 + pi_d_a5_a8_proc_0
      + pi_d_a5_a8_proc_1 - pi_d_a8_a5_proc_3 - pi_d_a8_a5_proc_0
      - pi_d_a8_a5_proc_1 + pi_d_a5_a9_proc_2 + pi_d_a5_a9_proc_3
      + pi_d_a5_a9_proc_0 + pi_d_a5_a9_proc_1 - pi_d_a9_a5_proc_2
      - pi_d_a9_a5_proc_3 - pi_d_a9_a5_proc_0 - pi_d_a9_a5_proc_1 >= 0
 c25: 872 pi_p_a5_a6 + 872 pi_p_a5_a9 + 872 pi_p_a5_a5 + 872 pi_d_a5_a1_proc_0
      + 872 pi_d_a5_a3_proc_0 + 872 pi_d_a5_a4_proc_0 + 872 pi_d_a5_a6_proc_0
      + 872 pi_d_a5_a8_proc_0 + 872 pi_d_a5_a9_proc_0 + pi_y1_a5
      + pi_y2_a5_proc_0 >= 0
 c26: 905 pi_p_a5_a6 + 905 pi_p_a5_a9 + 905 pi_p_a5_a5 + 905 pi_d_a5_a0_proc_1
      + 905 pi_d_a5_a1_proc_1 + 905 pi_d_a5_a2_proc_1 + 905 pi_d_a5_a3_proc_1
      + 905 pi_d_a5_a4_proc_1 + 905 pi_d_a5_a6_proc_1 + 905 pi_d_a5_a7_proc_1
      + 905 pi_d_a5_a8_proc_1 + 905 pi_d_a5_a9_proc_1 + pi_y1_a5
      + pi_y2_a5_proc_1 >= 0
 c27: 1135 pi_p_a5_a6 + 1135 pi_p_a5_a9 + 1135 pi_p_a5_a5
      + 1135 pi_d_a5_a1_proc_2 + 1135 pi_d_a5_a2_proc_2 + 1135 pi_d_a5_a3_proc_2
      + 1135 pi_d_a5_a4_proc_2 + 1135 pi_d_a5_a6_proc_2 + 1135 pi_d_a5_a9_proc_2
      + pi_y1_a5 + pi_y2_a5_proc_2 >= 0
 c28: 856 pi_p_a5_a6 + 856 pi_p_a5_a9 + 856 pi_p_a5_a5 + 856 pi_d_a5_a0_proc_3
      + 856 pi_d_a5_a1_proc_3 + 856 pi_d_a5_a2_proc_3 + 856 pi_d_a5_a3_proc_3
      + 856 pi_d_a5_a6_proc_3 + 856 pi_d_a5_a7_proc_3 + 856 pi_d_a5_a8_proc_3
      + 856 pi_d_a5_a9_proc_3 + pi_y1_a5 + pi_y2_a5_proc_3 >= 0
 c29: - pi_p_a5_a6 + pi_p_a6_a7 + pi_p_a6_a3 + pi_p_a6_a4 - pi_d_a0_a6_proc_3
      - pi_d_a0_a6_proc_1 + pi_d_a6_a0_proc_3 + pi_d_a6_a0_proc_1
      - pi_d_a1_a6_proc_2 - pi_d_a1_a6_proc_3 - pi_d_a1_a6_proc_0
      - pi_d_a1_a6_proc_1 + pi_d_a6_a1_proc_2 + pi_d_a6_a1_proc_3
      + pi_d_a6_a1_proc_0 + pi_d_a6_a1_proc_1 - pi_d_a2_a6_proc_2
      - pi_d_a2_a6_proc_3 - pi_d_a2_a6_proc_1 + pi_d_a6_a2_proc_2
      + pi_d_a6_a2_proc_3 + pi_d_a6_a2_proc_1 - pi_d_a3_a6_proc_2
      - pi_d_a3_a6_proc_3 - pi_d_a3_a6_proc_0 - pi_d_a3_a6_proc_1
      + pi_d_a6_a3_proc_2 + pi_d_a6_a3_proc_3 + pi_d_a6_a3_proc_0
      + pi_d_a6_a3_proc_1 - pi_d_a4_a6_proc_2 - pi_d_a4_a6_proc_0
      - pi_d_a4_a6_proc_1 + pi_d_a6_a4_proc_2 + pi_d_a6_a4_proc_0
      + pi_d_a6_a4_proc_1 - pi_d_a5_a6_proc_2 - pi_d_a5_a6_proc_3
      - pi_d_a5_a6_proc_0 - pi_d_a5_a6_proc_1 + pi_d_a6_a5_proc_2
      + pi_d_a6_a5_proc_3 + pi_d_a6_a5_proc_0 + pi_d_a6_a5_proc_1
      + pi_d_a6_a7_proc_3 + pi_d_a6_a7_proc_1 - pi_d_a7_a6_proc_3
      - pi_d_a7_a6_proc_1 + pi_d_a6_a8_proc_3 + pi_d_a6_a8_proc_0
      + pi_d_a6_a8_proc_1 - pi_d_a8_a6_proc_3 - pi_d_a8_a6_proc_0
      - pi_d_a8_a6_proc_1 + pi_d_a6_a9_proc_2 + pi_d_a6_a9_proc_3
      + pi_d_a6_a9_proc_0 + pi_d_a6_a9_proc_1 - pi_d_a9_a6_proc_2
      - pi_d_a9_a6_proc_3 - pi_d_a9_a6_proc_0 - pi_d_a9_a6_proc_1 >= 0
 c30: 951 pi_p_a6_a7 + 951 pi_p_a6_a3 + 951 pi_p_a6_a4 + 951 pi_d_a6_a1_proc_0
      + 951 pi_d_a6_a3_proc_0 + 951 pi_d_a6_a4_proc_0 + 951 pi_d_a6_a5_proc_0
      + 951 pi_d_a6_a8_proc_0 + 951 pi_d_a6_a9_proc_0 + pi_y1_a6
      + pi_y2_a6_proc_0 >= 0
 c31: 659 pi_p_a6_a7 + 659 pi_p_a6_a3 + 659 pi_p_a6_a4 + 659 pi_d_a6_a0_proc_1
      + 659 pi_d_a6_a1_proc_1 + 659 pi_d_a6_a2_proc_1 + 659 pi_d_a6_a3_proc_1
      + 659 pi_d_a6_a4_proc_1 + 659 pi_d_a6_a5_proc_1 + 659 pi_d_a6_a7_proc_1
      + 659 pi_d_a6_a8_proc_1 + 659 pi_d_a6_a9_proc_1 + pi_y1_a6
      + pi_y2_a6_proc_1 >= 0
 c32: 1101 pi_p_a6_a7 + 1101 pi_p_a6_a3 + 1101 pi_p_a6_a4
      + 1101 pi_d_a6_a1_proc_2 + 1101 pi_d_a6_a2_proc_2 + 1101 pi_d_a6_a3_proc_2
      + 1101 pi_d_a6_a4_proc_2 + 1101 pi_d_a6_a5_proc_2 + 1101 pi_d_a6_a9_proc_2
      + pi_y1_a6 + pi_y2_a6_proc_2 >= 0
 c33: 411 pi_p_a6_a7 + 411 pi_p_a6_a3 + 411 pi_p_a6_a4 + 411 pi_d_a6_a0_proc_3
      + 411 pi_d_a6_a1_proc_3 + 411 pi_d_a6_a2_proc_3 + 411 pi_d_a6_a3_proc_3
      + 411 pi_d_a6_a5_proc_3 + 411 pi_d_a6_a7_proc_3 + 411 pi_d_a6_a8_proc_3
      + 411 pi_d_a6_a9_proc_3 + pi_y1_a6 + pi_y2_a6_proc_3 >= 0
 c34: pi_p_a7_a1 - pi_p_a6_a7 + pi_p_a7_a5 - pi_p_a9_a7 - pi_d_a0_a7_proc_3
      - pi_d_a0_a7_proc_1 + pi_d_a7_a0_proc_3 + pi_d_a7_a0_proc_1
      - pi_d_a1_a7_proc_3 - pi_d_a1_a7_proc_1 + pi_d_a7_a1_proc_3
      + pi_d_a7_a1_proc_1 - pi_d_a2_a7_proc_3 - pi_d_a2_a7_proc_1
      + pi_d_a7_a2_proc_3 + pi_d_a7_a2_proc_1 - pi_d_a3_a7_proc_3
      - pi_d_a3_a7_proc_1 + pi_d_a7_a3_proc_3 + pi_d_a7_a3_proc_1
      - pi_d_a4_a7_proc_1 + pi_d_a7_a4_proc_1 - pi_d_a5_a7_proc_3
      - pi_d_a5_a7_proc_1 + pi_d_a7_a5_proc_3 + pi_d_a7_a5_proc_1
      - pi_d_a6_a7_proc_3 - pi_d_a6_a7_proc_1 + pi_d_a7_a6_proc_3
      + pi_d_a7_a6_proc_1 + pi_d_a7_a8_proc_3 + pi_d_a7_a8_proc_1
      - pi_d_a8_a7_proc_3 - pi_d_a8_a7_proc_1 + pi_d_a7_a9_proc_3
      + pi_d_a7_a9_proc_1 - pi_d_a9_a7_proc_3 - pi_d_a9_a7_proc_1 >= 0
 c35: 1247 pi_p_a7_a1 + 1247 pi_p_a7_a5 + 1247 pi_p_a7_a7
      + 1247 pi_d_a7_a0_proc_1 + 1247 pi_d_a7_a1_proc_1 + 1247 pi_d_a7_a2_proc_1
      + 1247 pi_d_a7_a3_proc_1 + 1247 pi_d_a7_a4_proc_1 + 1247 pi_d_a7_a5_proc_1
      + 1247 pi_d_a7_a6_proc_1 + 1247 pi_d_a7_a8_proc_1 + 1247 pi_d_a7_a9_proc_1
      + pi_y1_a7 + pi_y2_a7_proc_1 >= 0
 c36: 1268 pi_p_a7_a1 + 1268 pi_p_a7_a5 + 1268 pi_p_a7_a7
      + 1268 pi_d_a7_a0_proc_3 + 1268 pi_d_a7_a1_proc_3 + 1268 pi_d_a7_a2_proc_3
      + 1268 pi_d_a7_a3_proc_3 + 1268 pi_d_a7_a5_proc_3 + 1268 pi_d_a7_a6_proc_3
      + 1268 pi_d_a7_a8_proc_3 + 1268 pi_d_a7_a9_proc_3 + pi_y1_a7
      + pi_y2_a7_proc_3 >= 0
 c37: pi_p_a8_a1 - pi_p_a1_a8 - pi_p_a3_a8 - pi_d_a0_a8_proc_3
      - pi_d_a0_a8_proc_1 + pi_d_a8_a0_proc_3 + pi_d_a8_a0_proc_1
      - pi_d_a1_a8_proc_3 - pi_d_a1_a8_proc_0 - pi_d_a1_a8_proc_1
      + pi_d_a8_a1_proc_3 + pi_d_a8_a1_proc_0 + pi_d_a8_a1_proc_1
      - pi_d_a2_a8_proc_3 - pi_d_a2_a8_proc_1 + pi_d_a8_a2_proc_3
      + pi_d_a8_a2_proc_1 - pi_d_a3_a8_proc_3 - pi_d_a3_a8_proc_0
      - pi_d_a3_a8_proc_1 + pi_d_a8_a3_proc_3 + pi_d_a8_a3_proc_0
      + pi_d_a8_a3_proc_1 - pi_d_a4_a8_proc_0 - pi_d_a4_a8_proc_1
      + pi_d_a8_a4_proc_0 + pi_d_a8_a4_proc_1 - pi_d_a5_a8_proc_3
      - pi_d_a5_a8_proc_0 - pi_d_a5_a8_proc_1 + pi_d_a8_a5_proc_3
      + pi_d_a8_a5_proc_0 + pi_d_a8_a5_proc_1 - pi_d_a6_a8_proc_3
      - pi_d_a6_a8_proc_0 - pi_d_a6_a8_proc_1 + pi_d_a8_a6_proc_3
      + pi_d_a8_a6_proc_0 + pi_d_a8_a6_proc_1 - pi_d_a7_a8_proc_3
      - pi_d_a7_a8_proc_1 + pi_d_a8_a7_proc_3 + pi_d_a8_a7_proc_1
      + pi_d_a8_a9_proc_3 + pi_d_a8_a9_proc_0 + pi_d_a8_a9_proc_1
      - pi_d_a9_a8_proc_3 - pi_d_a9_a8_proc_0 - pi_d_a9_a8_proc_1 >= 0
 c38: 713 pi_p_a8_a1 + 713 pi_d_a8_a1_proc_0 + 713 pi_d_a8_a3_proc_0
      + 713 pi_d_a8_a4_proc_0 + 713 pi_d_a8_a5_proc_0 + 713 pi_d_a8_a6_proc_0
      + 713 pi_d_a8_a9_proc_0 + pi_y1_a8 + pi_y2_a8_proc_0 >= 0
 c39: 765 pi_p_a8_a1 + 765 pi_d_a8_a0_proc_1 + 765 pi_d_a8_a1_proc_1
      + 765 pi_d_a8_a2_proc_1 + 765 pi_d_a8_a3_proc_1 + 765 pi_d_a8_a4_proc_1
      + 765 pi_d_a8_a5_proc_1 + 765 pi_d_a8_a6_proc_1 + 765 pi_d_a8_a7_proc_1
      + 765 pi_d_a8_a9_proc_1 + pi_y1_a8 + pi_y2_a8_proc_1 >= 0
 c40: 674 pi_p_a8_a1 + 674 pi_d_a8_a0_proc_3 + 674 pi_d_a8_a1_proc_3
      + 674 pi_d_a8_a2_proc_3 + 674 pi_d_a8_a3_proc_3 + 674 pi_d_a8_a5_proc_3
      + 674 pi_d_a8_a6_proc_3 + 674 pi_d_a8_a7_proc_3 + 674 pi_d_a8_a9_proc_3
      + pi_y1_a8 + pi_y2_a8_proc_3 >= 0
 c41: - pi_p_a5_a9 + pi_p_a9_a7 - pi_d_a0_a9_proc_3 - pi_d_a0_a9_proc_1
      + pi_d_a9_a0_proc_3 + pi_d_a9_a0_proc_1 - pi_d_a1_a9_proc_2
      - pi_d_a1_a9_proc_3 - pi_d_a1_a9_proc_0 - pi_d_a1_a9_proc_1
      + pi_d_a9_a1_proc_2 + pi_d_a9_a1_proc_3 + pi_d_a9_a1_proc_0
      + pi_d_a9_a1_proc_1 - pi_d_a2_a9_proc_2 - pi_d_a2_a9_proc_3
      - pi_d_a2_a9_proc_1 + pi_d_a9_a2_proc_2 + pi_d_a9_a2_proc_3
      + pi_d_a9_a2_proc_1 - pi_d_a3_a9_proc_2 - pi_d_a3_a9_proc_3
      - pi_d_a3_a9_proc_0 - pi_d_a3_a9_proc_1 + pi_d_a9_a3_proc_2
      + pi_d_a9_a3_proc_3 + pi_d_a9_a3_proc_0 + pi_d_a9_a3_proc_1
      - pi_d_a4_a9_proc_2 - pi_d_a4_a9_proc_0 - pi_d_a4_a9_proc_1
      + pi_d_a9_a4_proc_2 + pi_d_a9_a4_proc_0 + pi_d_a9_a4_proc_1
      - pi_d_a5_a9_proc_2 - pi_d_a5_a9_proc_3 - pi_d_a5_a9_proc_0
      - pi_d_a5_a9_proc_1 + pi_d_a9_a5_proc_2 + pi_d_a9_a5_proc_3
      + pi_d_a9_a5_proc_0 + pi_d_a9_a5_proc_1 - pi_d_a6_a9_proc_2
      - pi_d_a6_a9_proc_3 - pi_d_a6_a9_proc_0 - pi_d_a6_a9_proc_1
      + pi_d_a9_a6_proc_2 + pi_d_a9_a6_proc_3 + pi_d_a9_a6_proc_0
      + pi_d_a9_a6_proc_1 - pi_d_a7_a9_proc_3 - pi_d_a7_a9_proc_1
      + pi_d_a9_a7_proc_3 + pi_d_a9_a7_proc_1 - pi_d_a8_a9_proc_3
      - pi_d_a8_a9_proc_0 - pi_d_a8_a9_proc_1 + pi_d_a9_a8_proc_3
      + pi_d_a9_a8_proc_0 + pi_d_a9_a8_proc_1 >= 0
 c42: 814 pi_p_a9_a7 + 814 pi_d_a9_a1_proc_0 + 814 pi_d_a9_a3_proc_0
      + 814 pi_d_a9_a4_proc_0 + 814 pi_d_a9_a5_proc_0 + 814 pi_d_a9_a6_proc_0
      + 814 pi_d_a9_a8_proc_0 + pi_y1_a9 + pi_y2_a9_proc_0 >= 0
 c43: 974 pi_p_a9_a7 + 974 pi_d_a9_a0_proc_1 + 974 pi_d_a9_a1_proc_1
      + 974 pi_d_a9_a2_proc_1 + 974 pi_d_a9_a3_proc_1 + 974 pi_d_a9_a4_proc_1
      + 974 pi_d_a9_a5_proc_1 + 974 pi_d_a9_a6_proc_1 + 974 pi_d_a9_a7_proc_1
      + 974 pi_d_a9_a8_proc_1 + pi_y1_a9 + pi_y2_a9_proc_1 >= 0
 c44: 1011 pi_p_a9_a7 + 1011 pi_d_a9_a1_proc_2 + 1011 pi_d_a9_a2_proc_2
      + 1011 pi_d_a9_a3_proc_2 + 1011 pi_d_a9_a4_proc_2 + 1011 pi_d_a9_a5_proc_2
      + 1011 pi_d_a9_a6_proc_2 + pi_y1_a9 + pi_y2_a9_proc_2 >= 0
 c45: 815 pi_p_a9_a7 + 815 pi_d_a9_a0_proc_3 + 815 pi_d_a9_a1_proc_3
      + 815 pi_d_a9_a2_proc_3 + 815 pi_d_a9_a3_proc_3 + 815 pi_d_a9_a5_proc_3
      + 815 pi_d_a9_a6_proc_3 + 815 pi_d_a9_a7_proc_3 + 815 pi_d_a9_a8_proc_3
      + pi_y1_a9 + pi_y2_a9_proc_3 >= 0

Bounds
       pi_y1_a0 Free
       pi_y1_a1 Free
       pi_y1_a2 Free
       pi_y1_a3 Free
       pi_y1_a4 Free
       pi_y1_a5 Free
       pi_y1_a6 Free
       pi_y1_a7 Free
       pi_y1_a8 Free
       pi_y1_a9 Free
End
